c strEdges: 189  randomEdges: 441 
c degrees:  2  3 
c girth: 10 max: 8.032766  
c Hgirth mixed MAXCUT instance
c generated from an undirected graph
c to solve unweighted MaxCut
p cnf 140 1260
100 136 0
-100 -136 0
100 47 0
-100 -47 0
100 21 0
-100 -21 0
87 17 0
-87 -17 0
87 76 0
-87 -76 0
48 16 0
-48 -16 0
48 124 0
-48 -124 0
48 67 0
-48 -67 0
6 25 0
-6 -25 0
6 123 0
-6 -123 0
130 69 0
-130 -69 0
130 17 0
-130 -17 0
93 99 0
-93 -99 0
93 42 0
-93 -42 0
93 60 0
-93 -60 0
64 60 0
-64 -60 0
64 45 0
-64 -45 0
64 1 0
-64 -1 0
18 33 0
-18 -33 0
18 91 0
-18 -91 0
18 3 0
-18 -3 0
44 84 0
-44 -84 0
44 34 0
-44 -34 0
44 95 0
-44 -95 0
112 49 0
-112 -49 0
112 98 0
-112 -98 0
108 52 0
-108 -52 0
108 3 0
-108 -3 0
4 128 0
-4 -128 0
4 131 0
-4 -131 0
4 129 0
-4 -129 0
13 14 0
-13 -14 0
13 49 0
-13 -49 0
30 71 0
-30 -71 0
30 47 0
-30 -47 0
90 79 0
-90 -79 0
90 88 0
-90 -88 0
102 114 0
-102 -114 0
102 70 0
-102 -70 0
102 54 0
-102 -54 0
134 36 0
-134 -36 0
134 83 0
-134 -83 0
134 119 0
-134 -119 0
85 103 0
-85 -103 0
85 54 0
-85 -54 0
85 133 0
-85 -133 0
96 117 0
-96 -117 0
96 135 0
-96 -135 0
31 47 0
-31 -47 0
31 128 0
-31 -128 0
31 95 0
-31 -95 0
125 83 0
-125 -83 0
125 73 0
-125 -73 0
125 45 0
-125 -45 0
120 106 0
-120 -106 0
120 49 0
-120 -49 0
86 12 0
-86 -12 0
86 138 0
-86 -138 0
86 43 0
-86 -43 0
89 34 0
-89 -34 0
89 42 0
-89 -42 0
66 124 0
-66 -124 0
66 70 0
-66 -70 0
66 69 0
-66 -69 0
74 98 0
-74 -98 0
74 29 0
-74 -29 0
74 110 0
-74 -110 0
9 28 0
-9 -28 0
9 59 0
-9 -59 0
9 135 0
-9 -135 0
97 92 0
-97 -92 0
97 81 0
-97 -81 0
97 80 0
-97 -80 0
53 7 0
-53 -7 0
53 84 0
-53 -84 0
109 45 0
-109 -45 0
109 2 0
-109 -2 0
109 133 0
-109 -133 0
126 95 0
-126 -95 0
126 23 0
-126 -23 0
126 69 0
-126 -69 0
118 80 0
-118 -80 0
118 21 0
-118 -21 0
118 29 0
-118 -29 0
15 54 0
-15 -54 0
15 123 0
-15 -123 0
101 67 0
-101 -67 0
101 7 0
-101 -7 0
101 136 0
-101 -136 0
11 39 0
-11 -39 0
11 63 0
-11 -63 0
11 61 0
-11 -61 0
24 88 0
-24 -88 0
24 106 0
-24 -106 0
24 20 0
-24 -20 0
58 123 0
-58 -123 0
58 117 0
-58 -117 0
75 110 0
-75 -110 0
75 34 0
-75 -34 0
75 59 0
-75 -59 0
72 76 0
-72 -76 0
72 14 0
-72 -14 0
72 39 0
-72 -39 0
40 129 0
-40 -129 0
40 92 0
-40 -92 0
19 29 0
-19 -29 0
19 79 0
-19 -79 0
107 131 0
-107 -131 0
107 46 0
-107 -46 0
107 91 0
-107 -91 0
65 56 0
-65 -56 0
65 8 0
-65 -8 0
65 17 0
-65 -17 0
127 91 0
-127 -91 0
127 84 0
-127 -84 0
113 1 0
-113 -1 0
113 88 0
-113 -88 0
113 68 0
-113 -68 0
10 138 0
-10 -138 0
10 68 0
-10 -68 0
10 111 0
-10 -111 0
115 23 0
-115 -23 0
115 79 0
-115 -79 0
115 43 0
-115 -43 0
82 62 0
-82 -62 0
82 36 0
-82 -36 0
82 80 0
-82 -80 0
137 43 0
-137 -43 0
137 136 0
-137 -136 0
137 60 0
-137 -60 0
104 46 0
-104 -46 0
104 25 0
-104 -25 0
104 8 0
-104 -8 0
55 59 0
-55 -59 0
55 129 0
-55 -129 0
55 76 0
-55 -76 0
78 38 0
-78 -38 0
78 103 0
-78 -103 0
78 62 0
-78 -62 0
27 135 0
-27 -135 0
27 16 0
-27 -16 0
27 62 0
-27 -62 0
140 133 0
-140 -133 0
140 71 0
-140 -71 0
140 14 0
-140 -14 0
77 41 0
-77 -41 0
77 124 0
-77 -124 0
139 111 0
-139 -111 0
139 52 0
-139 -52 0
139 28 0
-139 -28 0
22 42 0
-22 -42 0
22 81 0
-22 -81 0
32 8 0
-32 -8 0
32 1 0
-32 -1 0
32 16 0
-32 -16 0
132 81 0
-132 -81 0
132 114 0
-132 -114 0
132 7 0
-132 -7 0
105 5 0
-105 -5 0
105 114 0
-105 -114 0
105 33 0
-105 -33 0
51 2 0
-51 -2 0
51 92 0
-51 -92 0
51 20 0
-51 -20 0
50 63 0
-50 -63 0
50 99 0
-50 -99 0
50 46 0
-50 -46 0
26 61 0
-26 -61 0
26 12 0
-26 -12 0
26 5 0
-26 -5 0
57 20 0
-57 -20 0
57 41 0
-57 -41 0
57 63 0
-57 -63 0
121 70 0
-121 -70 0
121 119 0
-121 -119 0
116 68 0
-116 -68 0
116 117 0
-116 -117 0
35 119 0
-35 -119 0
35 131 0
-35 -131 0
35 138 0
-35 -138 0
37 73 0
-37 -73 0
37 98 0
-37 -98 0
37 25 0
-37 -25 0
94 3 0
-94 -3 0
94 106 0
-94 -106 0
94 38 0
-94 -38 0
122 21 0
-122 -21 0
122 56 0
-122 -56 0
122 111 0
-122 -111 0
57 34 0
-57 -34 0
74 60 0
-74 -60 0
37 91 0
-37 -91 0
105 35 0
-105 -35 0
135 61 0
-135 -61 0
58 27 0
-58 -27 0
114 54 0
-114 -54 0
112 29 0
-112 -29 0
78 81 0
-78 -81 0
140 132 0
-140 -132 0
52 135 0
-52 -135 0
75 2 0
-75 -2 0
23 42 0
-23 -42 0
97 55 0
-97 -55 0
57 124 0
-57 -124 0
38 68 0
-38 -68 0
52 133 0
-52 -133 0
37 59 0
-37 -59 0
122 119 0
-122 -119 0
118 84 0
-118 -84 0
75 133 0
-75 -133 0
118 16 0
-118 -16 0
92 70 0
-92 -70 0
127 16 0
-127 -16 0
124 73 0
-124 -73 0
139 132 0
-139 -132 0
94 62 0
-94 -62 0
27 88 0
-27 -88 0
30 122 0
-30 -122 0
24 131 0
-24 -131 0
55 28 0
-55 -28 0
126 2 0
-126 -2 0
72 84 0
-72 -84 0
64 138 0
-64 -138 0
118 22 0
-118 -22 0
6 134 0
-6 -134 0
101 10 0
-101 -10 0
108 122 0
-108 -122 0
118 81 0
-118 -81 0
64 118 0
-64 -118 0
15 139 0
-15 -139 0
97 50 0
-97 -50 0
109 94 0
-109 -94 0
32 23 0
-32 -23 0
4 96 0
-4 -96 0
97 19 0
-97 -19 0
87 11 0
-87 -11 0
18 7 0
-18 -7 0
48 88 0
-48 -88 0
112 21 0
-112 -21 0
11 99 0
-11 -99 0
9 79 0
-9 -79 0
90 124 0
-90 -124 0
51 119 0
-51 -119 0
17 84 0
-17 -84 0
112 131 0
-112 -131 0
101 17 0
-101 -17 0
104 62 0
-104 -62 0
108 110 0
-108 -110 0
18 10 0
-18 -10 0
10 32 0
-10 -32 0
44 29 0
-44 -29 0
48 103 0
-48 -103 0
38 63 0
-38 -63 0
34 131 0
-34 -131 0
64 123 0
-64 -123 0
35 54 0
-35 -54 0
66 42 0
-66 -42 0
30 70 0
-30 -70 0
57 91 0
-57 -91 0
107 128 0
-107 -128 0
80 110 0
-80 -110 0
134 76 0
-134 -76 0
87 101 0
-87 -101 0
122 45 0
-122 -45 0
137 25 0
-137 -25 0
125 38 0
-125 -38 0
60 33 0
-60 -33 0
74 1 0
-74 -1 0
89 50 0
-89 -50 0
36 3 0
-36 -3 0
85 107 0
-85 -107 0
50 117 0
-50 -117 0
137 140 0
-137 -140 0
48 107 0
-48 -107 0
30 120 0
-30 -120 0
126 114 0
-126 -114 0
93 21 0
-93 -21 0
120 12 0
-120 -12 0
101 127 0
-101 -127 0
108 80 0
-108 -80 0
44 25 0
-44 -25 0
125 41 0
-125 -41 0
82 129 0
-82 -129 0
125 69 0
-125 -69 0
13 57 0
-13 -57 0
48 28 0
-48 -28 0
137 91 0
-137 -91 0
132 41 0
-132 -41 0
58 7 0
-58 -7 0
82 17 0
-82 -17 0
13 19 0
-13 -19 0
67 61 0
-67 -61 0
22 69 0
-22 -69 0
122 14 0
-122 -14 0
105 119 0
-105 -119 0
126 11 0
-126 -11 0
50 39 0
-50 -39 0
11 62 0
-11 -62 0
48 27 0
-48 -27 0
48 17 0
-48 -17 0
19 132 0
-19 -132 0
76 135 0
-76 -135 0
49 61 0
-49 -61 0
99 34 0
-99 -34 0
31 76 0
-31 -76 0
66 41 0
-66 -41 0
18 23 0
-18 -23 0
44 133 0
-44 -133 0
125 111 0
-125 -111 0
109 33 0
-109 -33 0
13 136 0
-13 -136 0
125 29 0
-125 -29 0
28 8 0
-28 -8 0
22 1 0
-22 -1 0
130 16 0
-130 -16 0
66 115 0
-66 -115 0
96 60 0
-96 -60 0
65 36 0
-65 -36 0
27 133 0
-27 -133 0
100 39 0
-100 -39 0
96 57 0
-96 -57 0
90 121 0
-90 -121 0
125 57 0
-125 -57 0
53 54 0
-53 -54 0
82 111 0
-82 -111 0
108 66 0
-108 -66 0
120 109 0
-120 -109 0
22 71 0
-22 -71 0
30 107 0
-30 -107 0
31 68 0
-31 -68 0
31 103 0
-31 -103 0
114 29 0
-114 -29 0
18 128 0
-18 -128 0
52 68 0
-52 -68 0
118 24 0
-118 -24 0
57 133 0
-57 -133 0
108 121 0
-108 -121 0
103 54 0
-103 -54 0
103 131 0
-103 -131 0
108 56 0
-108 -56 0
91 38 0
-91 -38 0
96 29 0
-96 -29 0
58 16 0
-58 -16 0
69 71 0
-69 -71 0
97 21 0
-97 -21 0
56 2 0
-56 -2 0
19 3 0
-19 -3 0
78 34 0
-78 -34 0
24 52 0
-24 -52 0
27 119 0
-27 -119 0
24 22 0
-24 -22 0
48 130 0
-48 -130 0
89 75 0
-89 -75 0
56 59 0
-56 -59 0
120 21 0
-120 -21 0
30 88 0
-30 -88 0
103 70 0
-103 -70 0
65 123 0
-65 -123 0
18 56 0
-18 -56 0
78 95 0
-78 -95 0
64 63 0
-64 -63 0
90 41 0
-90 -41 0
64 7 0
-64 -7 0
30 98 0
-30 -98 0
89 56 0
-89 -56 0
130 20 0
-130 -20 0
82 128 0
-82 -128 0
58 38 0
-58 -38 0
107 124 0
-107 -124 0
105 116 0
-105 -116 0
100 40 0
-100 -40 0
114 81 0
-114 -81 0
130 105 0
-130 -105 0
40 43 0
-40 -43 0
87 109 0
-87 -109 0
86 133 0
-86 -133 0
82 63 0
-82 -63 0
85 35 0
-85 -35 0
105 122 0
-105 -122 0
15 95 0
-15 -95 0
74 109 0
-74 -109 0
140 111 0
-140 -111 0
58 55 0
-58 -55 0
97 113 0
-97 -113 0
7 46 0
-7 -46 0
5 63 0
-5 -63 0
74 61 0
-74 -61 0
24 28 0
-24 -28 0
85 86 0
-85 -86 0
126 61 0
-126 -61 0
31 55 0
-31 -55 0
91 70 0
-91 -70 0
32 38 0
-32 -38 0
109 79 0
-109 -79 0
18 52 0
-18 -52 0
94 138 0
-94 -138 0
31 14 0
-31 -14 0
87 126 0
-87 -126 0
103 7 0
-103 -7 0
35 94 0
-35 -94 0
131 59 0
-131 -59 0
121 95 0
-121 -95 0
113 76 0
-113 -76 0
74 123 0
-74 -123 0
119 21 0
-119 -21 0
6 5 0
-6 -5 0
17 111 0
-17 -111 0
44 71 0
-44 -71 0
12 138 0
-12 -138 0
40 79 0
-40 -79 0
51 45 0
-51 -45 0
134 68 0
-134 -68 0
9 23 0
-9 -23 0
78 73 0
-78 -73 0
56 81 0
-56 -81 0
71 21 0
-71 -21 0
29 111 0
-29 -111 0
43 63 0
-43 -63 0
27 116 0
-27 -116 0
16 29 0
-16 -29 0
123 21 0
-123 -21 0
9 43 0
-9 -43 0
134 33 0
-134 -33 0
95 73 0
-95 -73 0
127 33 0
-127 -33 0
125 36 0
-125 -36 0
126 17 0
-126 -17 0
132 43 0
-132 -43 0
93 69 0
-93 -69 0
72 136 0
-72 -136 0
54 38 0
-54 -38 0
93 49 0
-93 -49 0
107 34 0
-107 -34 0
47 41 0
-47 -41 0
121 76 0
-121 -76 0
108 90 0
-108 -90 0
74 49 0
-74 -49 0
78 52 0
-78 -52 0
31 7 0
-31 -7 0
35 80 0
-35 -80 0
132 67 0
-132 -67 0
48 51 0
-48 -51 0
29 91 0
-29 -91 0
72 41 0
-72 -41 0
9 128 0
-9 -128 0
22 28 0
-22 -28 0
112 97 0
-112 -97 0
33 111 0
-33 -111 0
108 77 0
-108 -77 0
97 17 0
-97 -17 0
24 5 0
-24 -5 0
69 33 0
-69 -33 0
87 120 0
-87 -120 0
15 57 0
-15 -57 0
130 37 0
-130 -37 0
13 104 0
-13 -104 0
57 68 0
-57 -68 0
30 81 0
-30 -81 0
37 83 0
-37 -83 0
102 12 0
-102 -12 0
6 92 0
-6 -92 0
90 65 0
-90 -65 0
90 32 0
-90 -32 0
52 45 0
-52 -45 0
62 20 0
-62 -20 0
131 138 0
-131 -138 0
86 17 0
-86 -17 0
85 55 0
-85 -55 0
25 110 0
-25 -110 0
22 99 0
-22 -99 0
96 111 0
-96 -111 0
58 139 0
-58 -139 0
127 122 0
-127 -122 0
99 91 0
-99 -91 0
97 76 0
-97 -76 0
31 25 0
-31 -25 0
86 50 0
-86 -50 0
69 12 0
-69 -12 0
37 117 0
-37 -117 0
130 122 0
-130 -122 0
11 139 0
-11 -139 0
24 33 0
-24 -33 0
1 8 0
-1 -8 0
95 135 0
-95 -135 0
32 17 0
-32 -17 0
126 131 0
-126 -131 0
134 79 0
-134 -79 0
123 133 0
-123 -133 0
10 114 0
-10 -114 0
37 69 0
-37 -69 0
96 40 0
-96 -40 0
100 69 0
-100 -69 0
121 21 0
-121 -21 0
100 78 0
-100 -78 0
85 57 0
-85 -57 0
85 56 0
-85 -56 0
112 132 0
-112 -132 0
104 67 0
-104 -67 0
133 5 0
-133 -5 0
37 84 0
-37 -84 0
118 28 0
-118 -28 0
93 136 0
-93 -136 0
36 80 0
-36 -80 0
109 105 0
-109 -105 0
55 52 0
-55 -52 0
98 56 0
-98 -56 0
139 23 0
-139 -23 0
53 133 0
-53 -133 0
83 92 0
-83 -92 0
27 42 0
-27 -42 0
50 79 0
-50 -79 0
81 5 0
-81 -5 0
103 56 0
-103 -56 0
125 86 0
-125 -86 0
47 56 0
-47 -56 0
87 7 0
-87 -7 0
49 135 0
-49 -135 0
58 23 0
-58 -23 0
64 2 0
-64 -2 0
27 12 0
-27 -12 0
126 116 0
-126 -116 0
97 98 0
-97 -98 0
136 133 0
-136 -133 0
30 82 0
-30 -82 0
32 128 0
-32 -128 0
35 67 0
-35 -67 0
39 1 0
-39 -1 0
51 50 0
-51 -50 0
49 106 0
-49 -106 0
112 25 0
-112 -25 0
102 120 0
-102 -120 0
24 29 0
-24 -29 0
121 54 0
-121 -54 0
126 135 0
-126 -135 0
1 38 0
-1 -38 0
113 117 0
-113 -117 0
85 132 0
-85 -132 0
48 82 0
-48 -82 0
126 28 0
-126 -28 0
40 67 0
-40 -67 0
49 83 0
-49 -83 0
11 41 0
-11 -41 0
66 55 0
-66 -55 0
74 79 0
-74 -79 0
102 116 0
-102 -116 0
39 29 0
-39 -29 0
33 81 0
-33 -81 0
102 17 0
-102 -17 0
105 62 0
-105 -62 0
9 17 0
-9 -17 0
97 23 0
-97 -23 0
87 133 0
-87 -133 0
106 43 0
-106 -43 0
136 7 0
-136 -7 0
137 73 0
-137 -73 0
130 34 0
-130 -34 0
89 67 0
-89 -67 0
40 22 0
-40 -22 0
58 115 0
-58 -115 0
100 55 0
-100 -55 0
112 71 0
-112 -71 0
126 139 0
-126 -139 0
47 1 0
-47 -1 0
120 61 0
-120 -61 0
51 128 0
-51 -128 0
112 35 0
-112 -35 0
16 110 0
-16 -110 0
49 71 0
-49 -71 0
87 28 0
-87 -28 0
99 33 0
-99 -33 0
86 10 0
-86 -10 0
127 99 0
-127 -99 0
58 26 0
-58 -26 0
103 38 0
-103 -38 0
64 74 0
-64 -74 0
136 124 0
-136 -124 0
31 21 0
-31 -21 0
35 81 0
-35 -81 0
118 2 0
-118 -2 0
56 138 0
-56 -138 0
127 52 0
-127 -52 0
120 66 0
-120 -66 0
30 40 0
-30 -40 0
129 3 0
-129 -3 0
75 5 0
-75 -5 0
130 23 0
-130 -23 0
69 114 0
-69 -114 0
86 38 0
-86 -38 0
89 91 0
-89 -91 0
6 81 0
-6 -81 0
133 3 0
-133 -3 0
13 50 0
-13 -50 0
113 98 0
-113 -98 0
136 129 0
-136 -129 0
132 128 0
-132 -128 0
127 51 0
-127 -51 0
23 63 0
-23 -63 0
109 65 0
-109 -65 0
121 122 0
-121 -122 0
52 63 0
-52 -63 0
95 133 0
-95 -133 0
134 128 0
-134 -128 0
17 16 0
-17 -16 0
58 14 0
-58 -14 0
77 60 0
-77 -60 0
130 36 0
-130 -36 0
44 91 0
-44 -91 0
125 16 0
-125 -16 0
45 23 0
-45 -23 0
98 46 0
-98 -46 0
134 114 0
-134 -114 0
114 111 0
-114 -111 0
120 29 0
-120 -29 0
128 70 0
-128 -70 0
36 5 0
-36 -5 0
93 68 0
-93 -68 0
104 12 0
-104 -12 0
115 121 0
-115 -121 0
107 137 0
-107 -137 0
58 25 0
-58 -25 0
48 39 0
-48 -39 0
19 69 0
-19 -69 0
7 29 0
-7 -29 0
75 10 0
-75 -10 0
118 122 0
-118 -122 0
62 61 0
-62 -61 0
14 123 0
-14 -123 0
13 125 0
-13 -125 0
18 9 0
-18 -9 0
44 122 0
-44 -122 0
